SAT
45 15 -93 -17 -4 -71 57 -64 -86 -14 -18 95 37 -85 53 59 -54 -22 -47 -75 12 -10 65 63 -67 -7 -20 5 -24 79 46 68 50 81 -6 100 55 -58 48 -19 16 -66 56 -32 -35 28 40 -62 -11 -60 26 -27 -51 88 2 29 -96 -43 78 13 -98 -36 -9 -44 99 90 3 39 87 -83 -41 -74 -73 -72 -21 69 -38 -42 97 -52 -91 8 -61 23 30 -31 84 70 -92 49 89 1 -80 25 76 -94 82 77 -34 -33 0
